Cost: 1485
0-3-4-5-44-1-2-0
0-39-35-31-30-29-22-23-24-25-26-27-28-32-36-37-38-0
0-41-6-8-9-7-10-43-11-12-13-15-18-16-17-14-19-21-0
Cost: 1485
0-41-6-8-9-7-10-43-11-12-13-15-17-18-16-14-19-21-0
0-39-38-35-31-30-29-22-23-24-25-26-27-28-32-36-37-0
0-3-4-5-44-1-2-0
Cost: 1485
0-3-4-5-44-1-2-0
0-41-6-8-9-7-10-43-11-12-13-15-18-16-17-14-19-21-0
0-39-38-35-31-30-29-22-23-24-25-26-27-28-32-36-37-0
Cost: 1485
0-3-4-5-44-1-2-0
0-41-6-8-9-7-10-43-11-12-13-15-18-16-17-14-19-21-0
0-39-38-35-31-30-29-22-23-24-25-26-27-28-32-36-37-0
Cost: 1485
0-41-6-8-9-7-10-43-11-12-13-15-18-16-17-14-19-21-0
0-39-35-31-30-29-22-23-24-25-26-27-28-32-36-37-38-0
0-3-4-5-44-1-2-0
Cost: 1485
0-39-35-31-30-29-22-23-24-25-26-27-28-32-36-37-38-0
0-3-4-5-44-1-2-0
0-41-6-8-9-7-10-43-11-12-13-15-18-16-17-14-19-21-0
Cost: 1485
0-3-4-5-44-1-2-0
0-39-35-31-30-29-22-23-24-25-26-27-28-32-36-37-38-0
0-41-6-8-9-7-10-43-11-12-13-15-18-16-17-14-19-21-0
Cost: 1485
0-39-38-35-31-30-29-22-23-24-25-26-27-28-32-36-37-0
0-3-4-5-44-1-2-0
0-41-6-8-9-7-10-43-11-12-13-15-18-16-17-14-19-21-0
Cost: 1485
0-39-38-35-31-30-29-22-23-24-25-26-27-28-32-36-37-0
0-3-4-5-44-1-2-0
0-41-6-8-9-7-10-43-11-12-13-15-18-16-17-14-19-21-0
Cost: 1485
0-39-38-35-31-30-29-22-23-24-25-26-27-28-32-36-37-0
0-3-4-5-44-1-2-0
0-41-6-8-9-7-10-43-11-12-13-15-18-16-17-14-19-21-0
Cost: 1485
0-39-38-35-31-30-29-22-23-24-25-26-27-28-32-36-37-0
0-3-4-5-44-1-2-0
0-41-6-8-9-7-10-43-11-12-13-15-18-16-17-14-19-21-0
Cost: 1485
0-3-4-5-44-1-2-0
0-41-6-8-9-7-10-43-11-12-13-15-18-16-17-14-19-21-0
0-39-38-35-31-30-29-22-23-24-25-26-27-28-32-36-37-0
Cost: 1485
0-3-4-5-44-1-2-0
0-41-6-8-9-7-10-43-11-12-13-15-18-16-17-14-19-21-0
0-39-38-35-31-30-29-22-23-24-25-26-27-28-32-36-37-0
Cost: 1485
0-3-4-5-44-1-2-0
0-41-6-8-9-7-10-43-11-12-13-15-18-16-17-14-19-21-0
0-39-38-35-31-30-29-22-23-24-25-26-27-28-32-36-37-0
Cost: 1485
0-3-4-5-44-1-2-0
0-41-6-8-9-7-10-43-11-12-13-15-18-16-17-14-19-21-0
0-39-38-35-31-30-29-22-23-24-25-26-27-28-32-36-37-0
Cost: 1485
0-3-4-5-44-1-2-0
0-41-6-8-9-7-10-43-11-12-13-15-18-16-17-14-19-21-0
0-39-38-35-31-30-29-22-23-24-25-26-27-28-32-36-37-0
Cost: 1485
0-3-4-5-44-1-2-0
0-41-6-8-9-7-10-43-11-12-13-15-18-16-17-14-19-21-0
0-39-38-35-31-30-29-22-23-24-25-26-27-28-32-36-37-0
Cost: 1485
0-39-38-35-31-30-29-22-23-24-25-26-27-28-32-36-37-0
0-3-4-5-44-1-2-0
0-41-6-7-8-9-10-43-11-12-13-15-18-16-17-14-19-21-0
Cost: 1485
0-3-4-5-44-1-2-0
0-41-6-8-9-7-10-43-11-12-13-15-18-16-17-14-19-21-0
0-39-38-35-31-30-29-22-23-24-25-26-27-28-32-36-37-0
Cost: 1485
0-3-4-5-44-1-2-0
0-41-6-8-9-7-10-43-11-12-13-15-18-16-17-14-19-21-0
0-39-38-35-31-30-29-22-23-24-25-26-27-28-32-36-37-0
Cost: 1485
0-3-4-5-44-1-2-0
0-41-6-8-9-7-10-43-11-12-13-15-18-16-17-14-19-21-0
0-39-38-35-31-30-29-22-23-24-25-26-27-28-32-36-37-0
Cost: 1485
0-3-4-5-44-1-2-0
0-41-6-8-9-7-10-43-11-12-13-15-18-16-17-14-19-21-0
0-39-38-35-31-30-29-22-23-24-25-26-27-28-32-36-37-0
Cost: 1485
0-3-4-5-44-1-2-0
0-41-6-8-9-7-10-43-11-12-13-15-18-16-17-14-19-21-0
0-39-38-35-31-30-29-22-23-24-25-26-27-28-32-36-37-0
Cost: 1485
0-3-4-5-44-1-2-0
0-41-6-8-9-7-10-43-11-12-13-15-18-16-17-14-19-21-0
0-39-38-35-31-30-29-22-23-24-25-26-27-28-32-36-37-0
Cost: 1485
0-3-4-5-44-1-2-0
0-41-6-8-9-7-10-43-11-12-13-15-18-16-17-14-19-21-0
0-39-38-35-31-30-29-22-23-24-25-26-27-28-32-36-37-0
Cost: 1485
0-41-6-8-9-7-10-43-11-12-13-15-18-16-17-14-19-21-0
0-39-35-31-30-29-22-23-24-25-26-27-28-32-36-37-38-0
0-3-4-5-44-1-2-0
Cost: 1485
0-3-4-5-44-1-2-0
0-41-6-8-9-7-10-43-11-12-13-15-18-16-17-14-19-21-0
0-39-38-35-31-30-29-22-23-24-25-26-27-28-32-36-37-0
Cost: 1485
0-3-4-5-44-1-2-0
0-41-6-8-9-7-10-43-11-12-13-15-18-16-17-14-19-21-0
0-39-38-35-31-30-29-22-23-24-25-26-27-28-32-36-37-0
Cost: 1485
0-3-4-5-44-1-2-0
0-41-6-8-9-7-10-43-11-12-13-15-18-16-17-14-19-21-0
0-39-38-35-31-30-29-22-23-24-25-26-27-28-32-36-37-0
Cost: 1485
0-3-4-5-44-1-2-0
0-41-6-8-9-7-10-43-11-12-13-15-18-16-17-14-19-21-0
0-39-38-35-31-30-29-22-23-24-25-26-27-28-32-36-37-0
Cost: 1485
0-3-4-5-44-1-2-0
0-39-35-31-30-29-22-23-24-25-26-27-28-32-36-37-38-0
0-41-6-8-9-7-10-43-11-12-13-15-18-16-17-14-19-21-0
Cost: 1485
0-39-35-31-30-29-22-23-24-25-26-27-28-32-36-37-38-0
0-3-4-5-44-1-2-0
0-41-6-8-9-7-10-43-11-12-13-15-17-18-16-14-19-21-0
Cost: 1485
0-39-38-35-31-30-29-22-23-24-25-26-27-28-32-36-37-0
0-3-4-5-44-1-2-0
0-41-6-8-9-7-10-43-11-12-13-15-18-16-17-14-19-21-0
Cost: 1485
0-39-38-35-31-30-29-22-23-24-25-26-27-28-32-36-37-0
0-3-4-5-44-1-2-0
0-41-6-8-9-7-10-43-11-12-13-15-18-16-17-14-19-21-0
Cost: 1485
0-3-4-5-44-1-2-0
0-41-6-8-9-7-10-43-11-12-13-15-17-18-16-14-19-21-0
0-39-38-35-31-30-29-22-23-24-25-26-27-28-32-36-37-0
